; PUSH cw_4 PUSH cw_2 MLOAD SWAP1 DUP1 => PUSH cw_2 MLOAD PUSH cw_4 PUSH cw_4
(set-option :produce-proofs true)
; 
(set-info :status unknown)
(declare-fun storage_t ((_ BitVec 256) (_ BitVec 256) (_ BitVec 256) Int (_ BitVec 256)) (_ BitVec 256))
(declare-fun w_2 () (_ BitVec 256))
(declare-fun w_4 () (_ BitVec 256))
(declare-fun storage_s ((_ BitVec 256) (_ BitVec 256) (_ BitVec 256) Int (_ BitVec 256)) (_ BitVec 256))
(declare-fun exc_halt_t (Int) Bool)
(declare-fun exc_halt_s (Int) Bool)
(declare-fun stack_t ((_ BitVec 256) (_ BitVec 256) (_ BitVec 256) Int (_ BitVec 6)) (_ BitVec 256))
(declare-fun stack_s ((_ BitVec 256) (_ BitVec 256) (_ BitVec 256) Int (_ BitVec 6)) (_ BitVec 256))
(declare-fun sc_t (Int) (_ BitVec 6))
(declare-fun sc_s (Int) (_ BitVec 6))
(declare-fun used_gas_t ((_ BitVec 256) (_ BitVec 256) (_ BitVec 256) Int) Int)
(declare-fun used_gas_s ((_ BitVec 256) (_ BitVec 256) (_ BitVec 256) Int) Int)
(declare-fun f_MLOAD ((_ BitVec 256) (_ BitVec 256) (_ BitVec 256) (_ BitVec 256)) (_ BitVec 256))
(assert
 (exists ((x_MLOAD_0 (_ BitVec 256)) )(let (($x3086 (forall ((w (_ BitVec 256)) )(let ((?x6720 (storage_t w_4 w_2 x_MLOAD_0 4 w)))
 (let ((?x7900 (storage_s w_4 w_2 x_MLOAD_0 5 w)))
 (= ?x7900 ?x6720))))
 ))
 (let (($x7854 (exc_halt_t 4)))
 (let (($x1862 (exc_halt_s 5)))
 (let (($x1994 (= $x1862 $x7854)))
 (let (($x1564 (forall ((n (_ BitVec 6)) )(let ((?x4804 (stack_t w_4 w_2 x_MLOAD_0 4 n)))
 (let ((?x6512 (stack_s w_4 w_2 x_MLOAD_0 5 n)))
 (let (($x9865 (= ?x6512 ?x4804)))
 (let ((?x7495 (sc_t 4)))
 (let (($x3540 (bvsle ?x7495 n)))
 (or $x3540 $x9865)))))))
 ))
 (let ((?x7495 (sc_t 4)))
 (let ((?x4319 (sc_s 5)))
 (let (($x3074 (= ?x4319 ?x7495)))
 (let ((?x6863 (used_gas_t w_4 w_2 x_MLOAD_0 0)))
 (let ((?x4637 (used_gas_s w_4 w_2 x_MLOAD_0 0)))
 (let (($x8526 (= ?x4637 ?x6863)))
 (let (($x2941 (forall ((w (_ BitVec 256)) )(let ((?x9089 (storage_t w_4 w_2 x_MLOAD_0 0 w)))
 (let ((?x1836 (storage_s w_4 w_2 x_MLOAD_0 0 w)))
 (= ?x1836 ?x9089))))
 ))
 (let (($x56 (exc_halt_t 0)))
 (let (($x57 (exc_halt_s 0)))
 (let (($x58 (= $x57 $x56)))
 (let (($x8850 (forall ((n (_ BitVec 6)) )(let ((?x63 (sc_t 0)))
 (let (($x11416 (bvsle ?x63 n)))
 (let ((?x5464 (stack_t w_4 w_2 x_MLOAD_0 0 n)))
 (let ((?x10590 (stack_s w_4 w_2 x_MLOAD_0 0 n)))
 (let (($x10711 (= ?x10590 ?x5464)))
 (or $x10711 $x11416)))))))
 ))
 (let ((?x63 (sc_t 0)))
 (let ((?x72 (sc_s 0)))
 (let (($x73 (= ?x72 ?x63)))
 (let (($x1388 (not (= ((_ extract 6 6) (bvadd (_ bv1 7) (concat (_ bv0 1) (sc_t 3)))) (_ bv0 1)))))
 (let (($x9712 (exc_halt_t 3)))
 (let (($x5044 (= $x7854 (or $x9712 $x1388))))
 (let (($x1430 (forall ((w (_ BitVec 256)) )(let ((?x9636 (storage_t w_4 w_2 x_MLOAD_0 3 w)))
 (let ((?x6720 (storage_t w_4 w_2 x_MLOAD_0 4 w)))
 (= ?x6720 ?x9636))))
 ))
 (let (($x11400 (forall ((n (_ BitVec 6)) )(let ((?x6830 (stack_t w_4 w_2 x_MLOAD_0 3 n)))
 (let ((?x4804 (stack_t w_4 w_2 x_MLOAD_0 4 n)))
 (let ((?x6754 (sc_t 3)))
 (let (($x5690 (bvsle ?x6754 n)))
 (or $x5690 (= ?x4804 ?x6830)))))))
 ))
 (let (($x4149 (= ?x7495 (bvadd (_ bv1 6) (sc_t 3)))))
 (let (($x9285 (= (used_gas_t w_4 w_2 x_MLOAD_0 4) (+ 3 (used_gas_t w_4 w_2 x_MLOAD_0 3)))))
 (let (($x11927 (not (= ((_ extract 6 6) (bvadd (_ bv1 7) (concat (_ bv0 1) (sc_t 2)))) (_ bv0 1)))))
 (let (($x5995 (exc_halt_t 2)))
 (let (($x5150 (= $x9712 (or $x5995 $x11927))))
 (let (($x9518 (forall ((w (_ BitVec 256)) )(let ((?x6321 (storage_t w_4 w_2 x_MLOAD_0 2 w)))
 (let ((?x9636 (storage_t w_4 w_2 x_MLOAD_0 3 w)))
 (= ?x9636 ?x6321))))
 ))
 (let (($x8626 (forall ((n (_ BitVec 6)) )(let ((?x11248 (sc_t 2)))
 (let (($x8190 (bvsle ?x11248 n)))
 (let ((?x1199 (stack_t w_4 w_2 x_MLOAD_0 2 n)))
 (let ((?x6830 (stack_t w_4 w_2 x_MLOAD_0 3 n)))
 (or (= ?x6830 ?x1199) $x8190))))))
 ))
 (let ((?x6754 (sc_t 3)))
 (let (($x9278 (= ?x6754 (bvadd (_ bv1 6) (sc_t 2)))))
 (let ((?x3792 (used_gas_t w_4 w_2 x_MLOAD_0 3)))
 (let (($x11339 (= $x5995 (or (exc_halt_t 1) (not (bvsle (_ bv0 6) (bvadd (_ bv63 6) (sc_t 1))))))))
 (let (($x7419 (forall ((w (_ BitVec 256)) )(let ((?x6349 (storage_t w_4 w_2 x_MLOAD_0 1 w)))
 (let ((?x6321 (storage_t w_4 w_2 x_MLOAD_0 2 w)))
 (= ?x6321 ?x6349))))
 ))
 (let (($x6771 (forall ((n (_ BitVec 6)) )(let ((?x9666 (sc_t 1)))
 (let ((?x2563 (bvadd (_ bv63 6) ?x9666)))
 (let (($x4931 (bvsle ?x2563 n)))
 (let ((?x9943 (stack_t w_4 w_2 x_MLOAD_0 1 n)))
 (let ((?x1199 (stack_t w_4 w_2 x_MLOAD_0 2 n)))
 (or (= ?x1199 ?x9943) $x4931)))))))
 ))
 (let ((?x9666 (sc_t 1)))
 (let ((?x11248 (sc_t 2)))
 (let (($x823 (= ?x11248 ?x9666)))
 (let ((?x10066 (used_gas_t w_4 w_2 x_MLOAD_0 2)))
 (let ((?x9005 (f_MLOAD w_4 w_2 x_MLOAD_0 (stack_t w_4 w_2 x_MLOAD_0 1 (bvadd (_ bv63 6) ?x9666)))))
 (let (($x4852 (exc_halt_t 1)))
 (let (($x11249 (= $x4852 (or $x56 (not (= ((_ extract 6 6) (bvadd (_ bv1 7) (concat (_ bv0 1) ?x63))) (_ bv0 1)))))))
 (let (($x7510 (forall ((w (_ BitVec 256)) )(let ((?x9089 (storage_t w_4 w_2 x_MLOAD_0 0 w)))
 (let ((?x6349 (storage_t w_4 w_2 x_MLOAD_0 1 w)))
 (= ?x6349 ?x9089))))
 ))
 (let (($x11528 (forall ((n (_ BitVec 6)) )(let ((?x63 (sc_t 0)))
 (let (($x11416 (bvsle ?x63 n)))
 (let ((?x5464 (stack_t w_4 w_2 x_MLOAD_0 0 n)))
 (let ((?x9943 (stack_t w_4 w_2 x_MLOAD_0 1 n)))
 (or (= ?x9943 ?x5464) $x11416))))))
 ))
 (let (($x6587 (= ?x9666 (bvadd (_ bv1 6) ?x63))))
 (let (($x11729 (not (bvsle (_ bv0 6) (bvadd (_ bv63 6) (sc_s 4))))))
 (let (($x9175 (exc_halt_s 4)))
 (let (($x4865 (not (= ((_ extract 6 6) (bvadd (_ bv1 7) (concat (_ bv0 1) (sc_s 4)))) (_ bv0 1)))))
 (let (($x4146 (forall ((w (_ BitVec 256)) )(let ((?x2964 (storage_s w_4 w_2 x_MLOAD_0 4 w)))
 (let ((?x7900 (storage_s w_4 w_2 x_MLOAD_0 5 w)))
 (= ?x7900 ?x2964))))
 ))
 (let (($x10117 (forall ((n (_ BitVec 6)) )(let ((?x10926 (stack_s w_4 w_2 x_MLOAD_0 4 n)))
 (let ((?x6512 (stack_s w_4 w_2 x_MLOAD_0 5 n)))
 (let ((?x9433 (sc_s 4)))
 (let ((?x1013 (bvadd (_ bv63 6) ?x9433)))
 (let (($x7310 (bvsle ?x1013 n)))
 (or $x7310 (= ?x6512 ?x10926))))))))
 ))
 (let (($x3192 (= ?x4319 (bvadd (_ bv1 6) (sc_s 4)))))
 (let (($x2165 (= (used_gas_s w_4 w_2 x_MLOAD_0 5) (+ 3 (used_gas_s w_4 w_2 x_MLOAD_0 4)))))
 (let ((?x9433 (sc_s 4)))
 (let ((?x1013 (bvadd (_ bv63 6) ?x9433)))
 (let ((?x4927 (stack_s w_4 w_2 x_MLOAD_0 4 ?x1013)))
 (let (($x5977 (= $x9175 (or (exc_halt_s 3) (not (bvsle (_ bv0 6) (bvadd (_ bv62 6) (sc_s 3))))))))
 (let (($x4461 (forall ((w (_ BitVec 256)) )(let ((?x1324 (storage_s w_4 w_2 x_MLOAD_0 3 w)))
 (let ((?x2964 (storage_s w_4 w_2 x_MLOAD_0 4 w)))
 (= ?x2964 ?x1324))))
 ))
 (let (($x7733 (forall ((n (_ BitVec 6)) )(let ((?x8275 (stack_s w_4 w_2 x_MLOAD_0 3 n)))
 (let ((?x10926 (stack_s w_4 w_2 x_MLOAD_0 4 n)))
 (let ((?x3851 (sc_s 3)))
 (let ((?x4699 (bvadd (_ bv62 6) ?x3851)))
 (let (($x8206 (bvsle ?x4699 n)))
 (or $x8206 (= ?x10926 ?x8275))))))))
 ))
 (let ((?x3851 (sc_s 3)))
 (let (($x3035 (= ?x9433 ?x3851)))
 (let ((?x431 (used_gas_s w_4 w_2 x_MLOAD_0 4)))
 (let ((?x11414 (bvadd (_ bv63 6) ?x3851)))
 (let ((?x3708 (stack_s w_4 w_2 x_MLOAD_0 3 ?x11414)))
 (let (($x8103 (exc_halt_s 3)))
 (let (($x4714 (= $x8103 (or (exc_halt_s 2) (not (bvsle (_ bv0 6) (bvadd (_ bv63 6) (sc_s 2))))))))
 (let (($x9499 (forall ((w (_ BitVec 256)) )(let ((?x10775 (storage_s w_4 w_2 x_MLOAD_0 2 w)))
 (let ((?x1324 (storage_s w_4 w_2 x_MLOAD_0 3 w)))
 (= ?x1324 ?x10775))))
 ))
 (let (($x971 (forall ((n (_ BitVec 6)) )(let ((?x7356 (stack_s w_4 w_2 x_MLOAD_0 2 n)))
 (let ((?x8275 (stack_s w_4 w_2 x_MLOAD_0 3 n)))
 (let ((?x2272 (sc_s 2)))
 (let ((?x7199 (bvadd (_ bv63 6) ?x2272)))
 (let (($x6207 (bvsle ?x7199 n)))
 (or $x6207 (= ?x8275 ?x7356))))))))
 ))
 (let ((?x2272 (sc_s 2)))
 (let (($x3952 (= ?x3851 ?x2272)))
 (let ((?x10783 (used_gas_s w_4 w_2 x_MLOAD_0 3)))
 (let ((?x3943 (f_MLOAD w_4 w_2 x_MLOAD_0 (stack_s w_4 w_2 x_MLOAD_0 2 (bvadd (_ bv63 6) ?x2272)))))
 (let (($x5084 (not (= ((_ extract 6 6) (bvadd (_ bv1 7) (concat (_ bv0 1) (sc_s 1)))) (_ bv0 1)))))
 (let (($x8780 (exc_halt_s 1)))
 (let (($x10052 (exc_halt_s 2)))
 (let (($x3753 (forall ((w (_ BitVec 256)) )(let ((?x1121 (storage_s w_4 w_2 x_MLOAD_0 1 w)))
 (let ((?x10775 (storage_s w_4 w_2 x_MLOAD_0 2 w)))
 (= ?x10775 ?x1121))))
 ))
 (let (($x11858 (forall ((n (_ BitVec 6)) )(let ((?x8759 (stack_s w_4 w_2 x_MLOAD_0 1 n)))
 (let ((?x7356 (stack_s w_4 w_2 x_MLOAD_0 2 n)))
 (or (= ?x7356 ?x8759) (bvsle (sc_s 1) n)))))
 ))
 (let (($x7089 (= ?x2272 (bvadd (_ bv1 6) (sc_s 1)))))
 (let ((?x5617 (used_gas_s w_4 w_2 x_MLOAD_0 2)))
 (let (($x1756 (= $x8780 (or $x57 (not (= ((_ extract 6 6) (bvadd (_ bv1 7) (concat (_ bv0 1) ?x72))) (_ bv0 1)))))))
 (let (($x10285 (forall ((w (_ BitVec 256)) )(let ((?x1836 (storage_s w_4 w_2 x_MLOAD_0 0 w)))
 (let ((?x1121 (storage_s w_4 w_2 x_MLOAD_0 1 w)))
 (= ?x1121 ?x1836))))
 ))
 (let (($x2489 (forall ((n (_ BitVec 6)) )(let ((?x72 (sc_s 0)))
 (let (($x2856 (bvsle ?x72 n)))
 (let ((?x10590 (stack_s w_4 w_2 x_MLOAD_0 0 n)))
 (let ((?x8759 (stack_s w_4 w_2 x_MLOAD_0 1 n)))
 (or (= ?x8759 ?x10590) $x2856))))))
 ))
 (let ((?x154 (sc_s 1)))
 (let (($x9590 (= ?x154 (bvadd (_ bv1 6) ?x72))))
 (let (($x5403 (forall ((w0 (_ BitVec 256)) )(let ((?x557 (ite (= (stack_s w_4 w_2 x_MLOAD_0 2 (bvadd (_ bv63 6) (sc_s 2))) w0) x_MLOAD_0 (_ bv0 256))))
 (let ((?x5930 (f_MLOAD w_4 w_2 x_MLOAD_0 w0)))
 (= ?x5930 ?x557))))
 ))
 (let (($x8980 (forall ((w (_ BitVec 256)) )(let ((?x1836 (storage_s w_4 w_2 x_MLOAD_0 0 w)))
 (= ?x1836 (_ bv0 256))))
 ))
 (let (($x8367 (= ?x4637 0)))
 (let (($x5393 (not $x57)))
 (let (($x1603 (= ?x72 (_ bv0 6))))
 (and $x1603 $x5393 $x8367 $x8980 $x5403 (= (stack_s w_4 w_2 x_MLOAD_0 1 ?x72) w_4) (= (used_gas_s w_4 w_2 x_MLOAD_0 1) (+ 3 ?x4637)) $x9590 $x2489 $x10285 $x1756 (= (stack_s w_4 w_2 x_MLOAD_0 2 ?x154) w_2) (= ?x5617 (+ 3 (used_gas_s w_4 w_2 x_MLOAD_0 1))) $x7089 $x11858 $x3753 (= $x10052 (or $x8780 $x5084)) (= ?x3708 ?x3943) (= ?x10783 (+ 3 ?x5617)) $x3952 $x971 $x9499 $x4714 (= ?x4927 (stack_s w_4 w_2 x_MLOAD_0 3 (bvadd (_ bv62 6) ?x3851))) (= (stack_s w_4 w_2 x_MLOAD_0 4 (bvadd (_ bv62 6) ?x9433)) ?x3708) (= ?x431 (+ 3 ?x10783)) $x3035 $x7733 $x4461 $x5977 (= (stack_s w_4 w_2 x_MLOAD_0 5 (bvadd (_ bv63 6) ?x4319)) ?x4927) (= (stack_s w_4 w_2 x_MLOAD_0 5 ?x1013) ?x4927) $x2165 $x3192 $x10117 $x4146 (= $x1862 (or $x4865 $x9175 $x11729)) (= (stack_t w_4 w_2 x_MLOAD_0 1 ?x63) w_2) (= (used_gas_t w_4 w_2 x_MLOAD_0 1) (+ 3 ?x6863)) $x6587 $x11528 $x7510 $x11249 (= (stack_t w_4 w_2 x_MLOAD_0 2 (bvadd (_ bv63 6) ?x11248)) ?x9005) (= ?x10066 (+ 3 (used_gas_t w_4 w_2 x_MLOAD_0 1))) $x823 $x6771 $x7419 $x11339 (= (stack_t w_4 w_2 x_MLOAD_0 3 ?x11248) w_4) (= ?x3792 (+ 3 ?x10066)) $x9278 $x8626 $x9518 $x5150 (= (stack_t w_4 w_2 x_MLOAD_0 4 ?x6754) w_4) $x9285 $x4149 $x11400 $x1430 $x5044 $x73 $x8850 $x58 $x2941 $x8526 (not (and $x3074 $x1564 $x1994 $x3086))))))))))))))))))))))))))))))))))))))))))))))))))))))))))))))))))))))))))))))))))))))))))))))
 )
(check-sat)
(get-proof)
